# Objective value = 2.9495846657014863e+02
x[0] 0
x[1] 0
x[2] 0
x[3] 0
x[4] 0
x[5] 1
x[6] 1
x[7] 0
x[8] 1
x[9] 1
x[10] 0
x[11] 1
x[12] 0
x[13] 0
x[14] 0
x[15] 0
x[16] 0
x[17] 1
x[18] 1
x[19] 0
x[20] 1
x[21] 0
x[22] 0
x[23] 0
x[24] 0
x[25] 1
x[26] 0
x[27] 0
x[28] 0
x[29] 0
x[30] 1
x[31] 1
x[32] 0
x[33] 0
x[34] 0
x[35] 0
x[36] 0
x[37] 0
x[38] 1
x[39] 1
x[40] 1
x[41] 0
x[42] 1
x[43] 1
x[44] 1
x[45] 0
x[46] 0
x[47] 1
x[48] 0
x[49] 1
x[50] 0
x[51] 0
x[52] 1
x[53] 0
x[54] 1
x[55] 0
x[56] 0
x[57] 0
x[58] 1
x[59] 1
x[60] 1
x[61] 0
x[62] 0
x[63] 0
x[64] 1
x[65] 0
x[66] 0
x[67] 1
x[68] 1
x[69] 0
x[70] 1
x[71] 0
x[72] 0
x[73] 1
x[74] 1
x[75] 0
x[76] 1
x[77] 0
x[78] 1
x[79] 0
x[80] 0
x[81] 1
x[82] 0
x[83] 0
x[84] 1
x[85] 1
x[86] 0
x[87] 1
x[88] 1
x[89] 1
x[90] 1
x[91] 0
x[92] 1
x[93] 0
x[94] 1
x[95] 0
x[96] 1
x[97] 1
x[98] 1
x[99] 1
x[100] 1
x[101] 0
x[102] 1
x[103] 1
x[104] 0
x[105] 1
x[106] 1
x[107] 1
x[108] 1
x[109] 1
x[110] 1
x[111] 0
x[112] 1
x[113] 0
x[114] 0
x[115] 0
x[116] 1
x[117] 1
x[118] 1
x[119] 0
x[120] 0
x[121] 1
x[122] 1
x[123] 0
x[124] 1
x[125] 1
x[126] 1
x[127] 1
x[128] 1
x[129] 0
x[130] 0
x[131] 0
x[132] 1
x[133] 0
x[134] 0
x[135] 0
x[136] 1
x[137] 1
x[138] 0
x[139] 1
x[140] 0
x[141] 1
x[142] 0
x[143] 0
x[144] 1
x[145] 1
x[146] 1
x[147] 1
x[148] 0
x[149] 1
x[150] 0
x[151] 1
x[152] 0
x[153] 1
x[154] 0
x[155] 0
x[156] 1
x[157] 1
x[158] 1
x[159] 0
x[160] 1
x[161] 0
x[162] 0
x[163] 0
x[164] 0
x[165] 0
x[166] 1
x[167] 0
x[168] 1
x[169] 1
x[170] 1
x[171] 0
x[172] 0
x[173] 1
x[174] 1
x[175] 0
x[176] 0
x[177] 1
x[178] 1
x[179] 0
x[180] 0
x[181] 1
x[182] 1
x[183] 0
x[184] 1
x[185] 0
x[186] 0
x[187] 0
x[188] 1
x[189] 1
x[190] 0
x[191] 1
x[192] 0
x[193] 1
x[194] 0
x[195] 0
x[196] 0
x[197] 0
x[198] 0
x[199] 0
x[200] 1
x[201] 0
x[202] 1
x[203] 0
x[204] 1
x[205] 1
x[206] 0
x[207] 0
x[208] 0
x[209] 1
x[210] 1
x[211] 1
x[212] 0
x[213] 1
x[214] 0
x[215] 0
x[216] 0
x[217] 0
x[218] 1
x[219] 1
x[220] 0
x[221] 0
x[222] 1
x[223] 0
x[224] 1
x[225] 0
x[226] 0
x[227] 1
x[228] 0
x[229] 1
x[230] 0
x[231] 1
x[232] 1
x[233] 1
x[234] 0
x[235] 0
x[236] 0
x[237] 0
x[238] 1
x[239] 0
x[240] 1
x[241] 1
x[242] 1
x[243] 0
x[244] 1
x[245] 1
x[246] 0
x[247] 0
x[248] 0
x[249] 0
x[250] 1
x[251] 0
x[252] 1
x[253] 0
x[254] 1
x[255] 0
x[256] 0
x[257] 1
x[258] 0
x[259] 0
x[260] 0
x[261] 1
x[262] 0
x[263] 1
x[264] 1
x[265] 0
x[266] 0
x[267] 0
x[268] 1
x[269] 1
x[270] 0
x[271] 1
x[272] 1
x[273] 1
x[274] 0
x[275] 0
x[276] 0
x[277] 1
x[278] 0
x[279] 0
x[280] 0
x[281] 0
x[282] 1
x[283] 0
x[284] 0
x[285] 0
x[286] 1
x[287] 1
x[288] 1
x[289] 1
x[290] 0
x[291] 1
x[292] 0
x[293] 1
x[294] 0
x[295] 0
x[296] 0
x[297] 1
x[298] 0
x[299] 1
x[300] 0
x[301] 0
x[302] 1
x[303] 1
x[304] 1
x[305] 0
x[306] 0
x[307] 1
x[308] 1
x[309] 1
x[310] 1
x[311] 0
x[312] 0
x[313] 0
x[314] 1
x[315] 1
x[316] 1
x[317] 0
x[318] 1
x[319] 0
x[320] 0
x[321] 0
x[322] 1
x[323] 0
x[324] 0
x[325] 0
x[326] 1
x[327] 0
x[328] 1
x[329] 0
x[330] 0
x[331] 0
x[332] 0
x[333] 0
x[334] 0
x[335] 0
x[336] 0
x[337] 0
x[338] 1
x[339] 0
x[340] 0
x[341] 1
x[342] 0
x[343] 1
x[344] 0
x[345] 1
x[346] 1
x[347] 0
x[348] 0
x[349] 0
x[350] 1
x[351] 0
x[352] 0
x[353] 0
x[354] 1
x[355] 0
x[356] 0
x[357] 0
x[358] 0
x[359] 0
x[360] 1
x[361] 0
x[362] 1
x[363] 0
x[364] 1
x[365] 0
x[366] 0
x[367] 1
x[368] 1
x[369] 1
x[370] 0
x[371] 1
x[372] 0
x[373] 1
x[374] 0
x[375] 0
x[376] 0
x[377] 0
x[378] 0
x[379] 1
x[380] 0
x[381] 1
x[382] 0
x[383] 0
x[384] 0
x[385] 0
x[386] 1
x[387] 1
x[388] 1
x[389] 1
x[390] 1
x[391] 1
x[392] 1
x[393] 0
x[394] 1
x[395] 0
x[396] 0
x[397] 0
x[398] 0
x[399] 1
x[400] 0
x[401] 0
x[402] 1
x[403] 0
x[404] 0
x[405] 1
x[406] 0
x[407] 1
x[408] 0
x[409] 1
x[410] 1
x[411] 1
x[412] 0
x[413] 0
x[414] 0
x[415] 0
x[416] 1
x[417] 0
x[418] 1
x[419] 0
x[420] 0
x[421] 0
x[422] 0
x[423] 0
x[424] 0
x[425] 1
x[426] 0
x[427] 1
x[428] 0
x[429] 1
x[430] 0
x[431] 0
x[432] 1
x[433] 0
x[434] 1
x[435] 1
x[436] 0
x[437] 1
x[438] 0
x[439] 1
x[440] 0
x[441] 1
x[442] 1
x[443] 1
x[444] 1
x[445] 1
x[446] 0
x[447] 1
x[448] 0
x[449] 0
x[450] 0
x[451] 0
x[452] 1
x[453] 0
x[454] 0
x[455] 1
x[456] 1
x[457] 0
x[458] 0
x[459] 1
x[460] 0
x[461] 1
x[462] 1
x[463] 1
x[464] 1
x[465] 0
x[466] 1
x[467] 1
x[468] 0
x[469] 0
x[470] 0
x[471] 0
x[472] 1
x[473] 1
x[474] 1
x[475] 1
x[476] 0
x[477] 1
x[478] 0
x[479] 1
x[480] 0
x[481] 1
x[482] 0
x[483] 0
x[484] 0
x[485] 1
x[486] 1
x[487] 1
x[488] 1
x[489] 1
x[490] 1
x[491] 0
x[492] 0
x[493] 0
x[494] 0
x[495] 1
x[496] 0
x[497] 0
x[498] 0
x[499] 1
x[500] 0
x[501] 0
x[502] 0
x[503] 0
x[504] 0
x[505] 1
x[506] 0
x[507] 0
x[508] 1
x[509] 0
x[510] 1
x[511] 1
x[512] 1
x[513] 0
x[514] 0
x[515] 0
x[516] 1
x[517] 1
x[518] 0
x[519] 1
x[520] 1
x[521] 1
x[522] 0
x[523] 0
x[524] 0
x[525] 0
x[526] 0
x[527] 1
x[528] 1
x[529] 0
x[530] 0
x[531] 0
x[532] 0
x[533] 0
x[534] 1
x[535] 1
x[536] 1
x[537] 1
x[538] 1
x[539] 1
x[540] 1
x[541] 1
x[542] 1
x[543] 0
x[544] 0
x[545] 0
x[546] 1
x[547] 0
x[548] 1
x[549] 1
x[550] 1
x[551] 1
x[552] 1
x[553] 1
x[554] 1
x[555] 1
x[556] 1
x[557] 1
x[558] 0
x[559] 0
x[560] 1
x[561] 1
x[562] 0
x[563] 1
x[564] 1
x[565] 1
x[566] 0
x[567] 1
x[568] 1
x[569] 0
x[570] 1
x[571] 1
x[572] 1
x[573] 1
x[574] 0
x[575] 1
x[576] 0
x[577] 0
x[578] 1
x[579] 0
x[580] 0
x[581] 0
x[582] 1
x[583] 1
x[584] 1
x[585] 0
x[586] 0
x[587] 0
x[588] 0
x[589] 1
x[590] 0
x[591] 1
x[592] 0
x[593] 1
x[594] 1
x[595] 0
x[596] 1
x[597] 0
x[598] 1
x[599] 1
x[600] 0
x[601] 0
x[602] 0
x[603] 1
x[604] 1
x[605] 1
x[606] 0
x[607] 0
x[608] 1
x[609] 1
x[610] 0
x[611] 1
x[612] 0
x[613] 0
x[614] 1
x[615] 1
x[616] 1
x[617] 0
x[618] 0
x[619] 0
x[620] 0
x[621] 0
x[622] 0
x[623] 1
x[624] 1
x[625] 1
x[626] 0
x[627] 0
x[628] 1
x[629] 0
x[630] 1
x[631] 1
x[632] 0
x[633] 0
x[634] 1
x[635] 1
x[636] 1
x[637] 1
x[638] 1
x[639] 1
x[640] 1
x[641] 1
x[642] 0
x[643] 0
x[644] 1
x[645] 0
x[646] 0
x[647] 0
x[648] 0
x[649] 0
x[650] 1
x[651] 1
x[652] 0
x[653] 1
x[654] 1
x[655] 0
x[656] 1
x[657] 1
x[658] 0
x[659] 0
x[660] 1
x[661] 1
x[662] 1
x[663] 1
x[664] 1
x[665] 0
x[666] 0
x[667] 0
x[668] 1
x[669] 1
x[670] 1
x[671] 1
x[672] 1
x[673] 0
x[674] 1
x[675] 0
x[676] 0
x[677] 0
x[678] 0
x[679] 1
x[680] 1
x[681] 0
x[682] 1
x[683] 1
x[684] 0
x[685] 1
x[686] 0
x[687] 0
x[688] 1
x[689] 1
x[690] 0
x[691] 0
x[692] 1
x[693] 0
x[694] 1
x[695] 0
x[696] 0
x[697] 0
x[698] 1
x[699] 0
x[700] 1
x[701] 1
x[702] 0
x[703] 1
x[704] 0
x[705] 0
x[706] 0
x[707] 0
x[708] 1
x[709] 1
x[710] 0
x[711] 0
x[712] 0
x[713] 0
x[714] 1
x[715] 0
x[716] 1
x[717] 1
x[718] 0
x[719] 1
x[720] 1
x[721] 0
x[722] 0
x[723] 0
x[724] 0
x[725] 0
x[726] 0
x[727] 0
x[728] 0
x[729] 0
x[730] 1
x[731] 0
x[732] 1
x[733] 1
x[734] 0
x[735] 1
x[736] 1
x[737] 0
x[738] 1
x[739] 0
x[740] 0
x[741] 1
x[742] 0
x[743] 1
x[744] 0
x[745] 0
x[746] 0
x[747] 1
x[748] 0
x[749] 0
x[750] 1
x[751] 1
x[752] 1
x[753] 1
x[754] 0
x[755] 1
x[756] 0
x[757] 1
x[758] 0
x[759] 1
x[760] 1
x[761] 0
x[762] 1
x[763] 1
x[764] 0
x[765] 0
x[766] 1
x[767] 1
x[768] 0
x[769] 0
x[770] 1
x[771] 0
x[772] 0
x[773] 1
x[774] 0
x[775] 1
x[776] 0
x[777] 0
x[778] 0
x[779] 0
x[780] 0
x[781] 1
x[782] 1
x[783] 1
x[784] 0
x[785] 1
x[786] 0
x[787] 1
x[788] 0
x[789] 0
x[790] 1
x[791] 0
x[792] 1
x[793] 0
x[794] 1
x[795] 1
x[796] 0
x[797] 1
x[798] 0
x[799] 1
x[800] 1
x[801] 0
x[802] 0
x[803] 0
x[804] 0
x[805] 0
x[806] 0
x[807] 0
x[808] 1
x[809] 1
x[810] 0
x[811] 0
x[812] 0
x[813] 0
x[814] 0
x[815] 0
x[816] 0
x[817] 0
x[818] 1
x[819] 1
x[820] 1
x[821] 0
x[822] 0
x[823] 0
x[824] 0
x[825] 1
x[826] 1
x[827] 0
x[828] 1
x[829] 1
x[830] 0
x[831] 0
x[832] 1
x[833] 1
x[834] 0
x[835] 1
x[836] 0
x[837] 1
x[838] 1
x[839] 0
x[840] 1
x[841] 1
x[842] 1
x[843] 1
x[844] 1
x[845] 1
x[846] 1
x[847] 1
x[848] 1
x[849] 1
x[850] 1
x[851] 1
x[852] 0
x[853] 1
x[854] 0
x[855] 1
x[856] 1
x[857] 0
x[858] 0
x[859] 0
x[860] 1
x[861] 1
x[862] 1
x[863] 0
x[864] 1
x[865] 1
x[866] 0
x[867] 0
x[868] 1
x[869] 1
x[870] 1
x[871] 1
x[872] 1
x[873] 0
x[874] 1
x[875] 0
x[876] 0
x[877] 0
x[878] 1
x[879] 0
x[880] 0
x[881] 0
x[882] 1
x[883] 0
x[884] 0
x[885] 1
x[886] 1
x[887] 1
x[888] 0
x[889] 1
x[890] 0
x[891] 0
x[892] 1
x[893] 0
x[894] 0
x[895] 1
x[896] 0
x[897] 1
x[898] 0
x[899] 0
x[900] 0
x[901] 0
x[902] 1
x[903] 0
x[904] 0
x[905] 0
x[906] 1
x[907] 0
x[908] 1
x[909] 0
x[910] 0
x[911] 1
x[912] 1
x[913] 1
x[914] 0
x[915] 0
x[916] 1
x[917] 1
x[918] 1
x[919] 0
x[920] 1
x[921] 0
x[922] 1
x[923] 1
x[924] 0
x[925] 0
x[926] 0
x[927] 0
x[928] 1
x[929] 0
x[930] 0
x[931] 0
x[932] 0
x[933] 0
x[934] 0
x[935] 1
x[936] 0
x[937] 1
x[938] 0
x[939] 1
x[940] 1
x[941] 1
x[942] 1
x[943] 0
x[944] 1
x[945] 1
x[946] 0
x[947] 1
x[948] 0
x[949] 1
x[950] 1
x[951] 1
x[952] 1
x[953] 1
x[954] 1
x[955] 1
x[956] 0
x[957] 0
x[958] 0
x[959] 1
x[960] 1
x[961] 1
x[962] 1
x[963] 1
x[964] 0
x[965] 1
x[966] 1
x[967] 0
x[968] 0
x[969] 1
x[970] 0
x[971] 1
x[972] 0
x[973] 0
x[974] 1
x[975] 0
x[976] 1
x[977] 0
x[978] 1
x[979] 0
x[980] 1
x[981] 0
x[982] 0
x[983] 0
x[984] 0
x[985] 0
x[986] 1
x[987] 1
x[988] 0
x[989] 0
x[990] 0
x[991] 1
x[992] 1
x[993] 0
x[994] 0
x[995] 0
x[996] 0
x[997] 1
x[998] 0
x[999] 1
